<?xml version="1.0" encoding="UTF-8"?><osil xmlns="os.optimizationservices.org" xmlns:xsi="http://www.w3.org/2001/XMLSchema-instance" xsi:schemaLocation="os.optimizationservices.org http://www.optimizationservices.org/schemas/2.0/OSiL.xsd"><instanceHeader><name>autocorr_bern20-05</name></instanceHeader><instanceData><variables numberOfVariables="21"><var name="b1" type="B" ub="1"/><var name="b2" type="B" ub="1"/><var name="b3" type="B" ub="1"/><var name="b4" type="B" ub="1"/><var name="b5" type="B" ub="1"/><var name="b6" type="B" ub="1"/><var name="b7" type="B" ub="1"/><var name="b8" type="B" ub="1"/><var name="b9" type="B" ub="1"/><var name="b10" type="B" ub="1"/><var name="b11" type="B" ub="1"/><var name="b12" type="B" ub="1"/><var name="b13" type="B" ub="1"/><var name="b14" type="B" ub="1"/><var name="b15" type="B" ub="1"/><var name="b16" type="B" ub="1"/><var name="b17" type="B" ub="1"/><var name="b18" type="B" ub="1"/><var name="b19" type="B" ub="1"/><var name="b20" type="B" ub="1"/><var name="objvar" lb="-INF"/></variables><objectives><obj maxOrMin="min" name="e1" numberOfObjCoef="1"><coef idx="20">1</coef></obj></objectives><constraints numberOfConstraints="1"><con name="e1" ub="0"/></constraints><linearConstraintCoefficients numberOfValues="1"><start><el>0</el><el>1</el></start><colIdx><el>20</el></colIdx><value><el>-1</el></value></linearConstraintCoefficients><nonlinearExpressions numberOfNonlinearExpressions="1"><nl idx="0"><sum><product><variable idx="0" coef="64"/><variable idx="1"/><variable idx="2"/><variable idx="3"/></product><product><variable idx="0" coef="64"/><variable idx="1"/><variable idx="3"/><variable idx="4"/></product><product><variable idx="1" coef="128"/><variable idx="2"/><variable idx="3"/><variable idx="4"/></product><product><variable idx="1" coef="64"/><variable idx="2"/><variable idx="4"/><variable idx="5"/></product><product><variable idx="2" coef="128"/><variable idx="3"/><variable idx="4"/><variable idx="5"/></product><product><variable idx="2" coef="64"/><variable idx="3"/><variable idx="5"/><variable idx="6"/></product><product><variable idx="3" coef="128"/><variable idx="4"/><variable idx="5"/><variable idx="6"/></product><product><variable idx="3" coef="64"/><variable idx="4"/><variable idx="6"/><variable idx="7"/></product><product><variable idx="4" coef="128"/><variable idx="5"/><variable idx="6"/><variable idx="7"/></product><product><variable idx="4" coef="64"/><variable idx="5"/><variable idx="7"/><variable idx="8"/></product><product><variable idx="5" coef="128"/><variable idx="6"/><variable idx="7"/><variable idx="8"/></product><product><variable idx="5" coef="64"/><variable idx="6"/><variable idx="8"/><variable idx="9"/></product><product><variable idx="6" coef="128"/><variable idx="7"/><variable idx="8"/><variable idx="9"/></product><product><variable idx="6" coef="64"/><variable idx="7"/><variable idx="9"/><variable idx="10"/></product><product><variable idx="7" coef="128"/><variable idx="8"/><variable idx="9"/><variable idx="10"/></product><product><variable idx="7" coef="64"/><variable idx="8"/><variable idx="10"/><variable idx="11"/></product><product><variable idx="8" coef="128"/><variable idx="9"/><variable idx="10"/><variable idx="11"/></product><product><variable idx="8" coef="64"/><variable idx="9"/><variable idx="11"/><variable idx="12"/></product><product><variable idx="9" coef="128"/><variable idx="10"/><variable idx="11"/><variable idx="12"/></product><product><variable idx="9" coef="64"/><variable idx="10"/><variable idx="12"/><variable idx="13"/></product><product><variable idx="10" coef="128"/><variable idx="11"/><variable idx="12"/><variable idx="13"/></product><product><variable idx="10" coef="64"/><variable idx="11"/><variable idx="13"/><variable idx="14"/></product><product><variable idx="11" coef="128"/><variable idx="12"/><variable idx="13"/><variable idx="14"/></product><product><variable idx="11" coef="64"/><variable idx="12"/><variable idx="14"/><variable idx="15"/></product><product><variable idx="12" coef="128"/><variable idx="13"/><variable idx="14"/><variable idx="15"/></product><product><variable idx="12" coef="64"/><variable idx="13"/><variable idx="15"/><variable idx="16"/></product><product><variable idx="13" coef="128"/><variable idx="14"/><variable idx="15"/><variable idx="16"/></product><product><variable idx="13" coef="64"/><variable idx="14"/><variable idx="16"/><variable idx="17"/></product><product><variable idx="14" coef="128"/><variable idx="15"/><variable idx="16"/><variable idx="17"/></product><product><variable idx="14" coef="64"/><variable idx="15"/><variable idx="17"/><variable idx="18"/></product><product><variable idx="15" coef="128"/><variable idx="16"/><variable idx="17"/><variable idx="18"/></product><product><variable idx="15" coef="64"/><variable idx="16"/><variable idx="18"/><variable idx="19"/></product><product><variable idx="16" coef="64"/><variable idx="17"/><variable idx="18"/><variable idx="19"/></product><product><variable idx="0" coef="-32"/><variable idx="1"/><variable idx="2"/></product><product><variable idx="0" coef="-64"/><variable idx="1"/><variable idx="3"/></product><product><variable idx="0" coef="-32"/><variable idx="1"/><variable idx="4"/></product><product><variable idx="0" coef="-32"/><variable idx="2"/><variable idx="3"/></product><product><variable idx="0" coef="-32"/><variable idx="3"/><variable idx="4"/></product><product><variable idx="1" coef="-96"/><variable idx="2"/><variable idx="3"/></product><product><variable idx="1" coef="-96"/><variable idx="2"/><variable idx="4"/></product><product><variable idx="1" coef="-32"/><variable idx="2"/><variable idx="5"/></product><product><variable idx="1" coef="-96"/><variable idx="3"/><variable idx="4"/></product><product><variable idx="1" coef="-32"/><variable idx="4"/><variable idx="5"/></product><product><variable idx="2" coef="-128"/><variable idx="3"/><variable idx="4"/></product><product><variable idx="2" coef="-96"/><variable idx="3"/><variable idx="5"/></product><product><variable idx="2" coef="-32"/><variable idx="3"/><variable idx="6"/></product><product><variable idx="2" coef="-96"/><variable idx="4"/><variable idx="5"/></product><product><variable idx="2" coef="-32"/><variable idx="5"/><variable idx="6"/></product><product><variable idx="3" coef="-128"/><variable idx="4"/><variable idx="5"/></product><product><variable idx="3" coef="-96"/><variable idx="4"/><variable idx="6"/></product><product><variable idx="3" coef="-32"/><variable idx="4"/><variable idx="7"/></product><product><variable idx="3" coef="-96"/><variable idx="5"/><variable idx="6"/></product><product><variable idx="3" coef="-32"/><variable idx="6"/><variable idx="7"/></product><product><variable idx="4" coef="-128"/><variable idx="5"/><variable idx="6"/></product><product><variable idx="4" coef="-96"/><variable idx="5"/><variable idx="7"/></product><product><variable idx="4" coef="-32"/><variable idx="5"/><variable idx="8"/></product><product><variable idx="4" coef="-96"/><variable idx="6"/><variable idx="7"/></product><product><variable idx="4" coef="-32"/><variable idx="7"/><variable idx="8"/></product><product><variable idx="5" coef="-128"/><variable idx="6"/><variable idx="7"/></product><product><variable idx="5" coef="-96"/><variable idx="6"/><variable idx="8"/></product><product><variable idx="5" coef="-32"/><variable idx="6"/><variable idx="9"/></product><product><variable idx="5" coef="-96"/><variable idx="7"/><variable idx="8"/></product><product><variable idx="5" coef="-32"/><variable idx="8"/><variable idx="9"/></product><product><variable idx="6" coef="-128"/><variable idx="7"/><variable idx="8"/></product><product><variable idx="6" coef="-96"/><variable idx="7"/><variable idx="9"/></product><product><variable idx="6" coef="-32"/><variable idx="7"/><variable idx="10"/></product><product><variable idx="6" coef="-96"/><variable idx="8"/><variable idx="9"/></product><product><variable idx="6" coef="-32"/><variable idx="9"/><variable idx="10"/></product><product><variable idx="7" coef="-128"/><variable idx="8"/><variable idx="9"/></product><product><variable idx="7" coef="-96"/><variable idx="8"/><variable idx="10"/></product><product><variable idx="7" coef="-32"/><variable idx="8"/><variable idx="11"/></product><product><variable idx="7" coef="-96"/><variable idx="9"/><variable idx="10"/></product><product><variable idx="7" coef="-32"/><variable idx="10"/><variable idx="11"/></product><product><variable idx="8" coef="-128"/><variable idx="9"/><variable idx="10"/></product><product><variable idx="8" coef="-96"/><variable idx="9"/><variable idx="11"/></product><product><variable idx="8" coef="-32"/><variable idx="9"/><variable idx="12"/></product><product><variable idx="8" coef="-96"/><variable idx="10"/><variable idx="11"/></product><product><variable idx="8" coef="-32"/><variable idx="11"/><variable idx="12"/></product><product><variable idx="9" coef="-128"/><variable idx="10"/><variable idx="11"/></product><product><variable idx="9" coef="-96"/><variable idx="10"/><variable idx="12"/></product><product><variable idx="9" coef="-32"/><variable idx="10"/><variable idx="13"/></product><product><variable idx="9" coef="-96"/><variable idx="11"/><variable idx="12"/></product><product><variable idx="9" coef="-32"/><variable idx="12"/><variable idx="13"/></product><product><variable idx="10" coef="-128"/><variable idx="11"/><variable idx="12"/></product><product><variable idx="10" coef="-96"/><variable idx="11"/><variable idx="13"/></product><product><variable idx="10" coef="-32"/><variable idx="11"/><variable idx="14"/></product><product><variable idx="10" coef="-96"/><variable idx="12"/><variable idx="13"/></product><product><variable idx="10" coef="-32"/><variable idx="13"/><variable idx="14"/></product><product><variable idx="11" coef="-128"/><variable idx="12"/><variable idx="13"/></product><product><variable idx="11" coef="-96"/><variable idx="12"/><variable idx="14"/></product><product><variable idx="11" coef="-32"/><variable idx="12"/><variable idx="15"/></product><product><variable idx="11" coef="-96"/><variable idx="13"/><variable idx="14"/></product><product><variable idx="11" coef="-32"/><variable idx="14"/><variable idx="15"/></product><product><variable idx="12" coef="-128"/><variable idx="13"/><variable idx="14"/></product><product><variable idx="12" coef="-96"/><variable idx="13"/><variable idx="15"/></product><product><variable idx="12" coef="-32"/><variable idx="13"/><variable idx="16"/></product><product><variable idx="12" coef="-96"/><variable idx="14"/><variable idx="15"/></product><product><variable idx="12" coef="-32"/><variable idx="15"/><variable idx="16"/></product><product><variable idx="13" coef="-128"/><variable idx="14"/><variable idx="15"/></product><product><variable idx="13" coef="-96"/><variable idx="14"/><variable idx="16"/></product><product><variable idx="13" coef="-32"/><variable idx="14"/><variable idx="17"/></product><product><variable idx="13" coef="-96"/><variable idx="15"/><variable idx="16"/></product><product><variable idx="13" coef="-32"/><variable idx="16"/><variable idx="17"/></product><product><variable idx="14" coef="-128"/><variable idx="15"/><variable idx="16"/></product><product><variable idx="14" coef="-96"/><variable idx="15"/><variable idx="17"/></product><product><variable idx="14" coef="-32"/><variable idx="15"/><variable idx="18"/></product><product><variable idx="14" coef="-96"/><variable idx="16"/><variable idx="17"/></product><product><variable idx="14" coef="-32"/><variable idx="17"/><variable idx="18"/></product><product><variable idx="15" coef="-128"/><variable idx="16"/><variable idx="17"/></product><product><variable idx="15" coef="-96"/><variable idx="16"/><variable idx="18"/></product><product><variable idx="15" coef="-32"/><variable idx="16"/><variable idx="19"/></product><product><variable idx="15" coef="-96"/><variable idx="17"/><variable idx="18"/></product><product><variable idx="15" coef="-32"/><variable idx="18"/><variable idx="19"/></product><product><variable idx="16" coef="-96"/><variable idx="17"/><variable idx="18"/></product><product><variable idx="16" coef="-32"/><variable idx="17"/><variable idx="19"/></product><product><variable idx="16" coef="-64"/><variable idx="18"/><variable idx="19"/></product><product><variable idx="17" coef="-32"/><variable idx="18"/><variable idx="19"/></product><product><variable idx="0" coef="32"/><variable idx="1"/></product><product><variable idx="0" coef="24"/><variable idx="2"/></product><product><variable idx="0" coef="32"/><variable idx="3"/></product><product><variable idx="0" coef="24"/><variable idx="4"/></product><product><variable idx="1" coef="64"/><variable idx="2"/></product><product><variable idx="1" coef="80"/><variable idx="3"/></product><product><variable idx="1" coef="64"/><variable idx="4"/></product><product><variable idx="1" coef="24"/><variable idx="5"/></product><product><variable idx="2" coef="96"/><variable idx="3"/></product><product><variable idx="2" coef="104"/><variable idx="4"/></product><product><variable idx="2" coef="64"/><variable idx="5"/></product><product><variable idx="2" coef="24"/><variable idx="6"/></product><product><variable idx="3" coef="128"/><variable idx="4"/></product><product><variable idx="3" coef="104"/><variable idx="5"/></product><product><variable idx="3" coef="64"/><variable idx="6"/></product><product><variable idx="3" coef="24"/><variable idx="7"/></product><product><variable idx="4" coef="128"/><variable idx="5"/></product><product><variable idx="4" coef="104"/><variable idx="6"/></product><product><variable idx="4" coef="64"/><variable idx="7"/></product><product><variable idx="4" coef="24"/><variable idx="8"/></product><product><variable idx="5" coef="128"/><variable idx="6"/></product><product><variable idx="5" coef="104"/><variable idx="7"/></product><product><variable idx="5" coef="64"/><variable idx="8"/></product><product><variable idx="5" coef="24"/><variable idx="9"/></product><product><variable idx="6" coef="128"/><variable idx="7"/></product><product><variable idx="6" coef="104"/><variable idx="8"/></product><product><variable idx="6" coef="64"/><variable idx="9"/></product><product><variable idx="6" coef="24"/><variable idx="10"/></product><product><variable idx="7" coef="128"/><variable idx="8"/></product><product><variable idx="7" coef="104"/><variable idx="9"/></product><product><variable idx="7" coef="64"/><variable idx="10"/></product><product><variable idx="7" coef="24"/><variable idx="11"/></product><product><variable idx="8" coef="128"/><variable idx="9"/></product><product><variable idx="8" coef="104"/><variable idx="10"/></product><product><variable idx="8" coef="64"/><variable idx="11"/></product><product><variable idx="8" coef="24"/><variable idx="12"/></product><product><variable idx="9" coef="128"/><variable idx="10"/></product><product><variable idx="9" coef="104"/><variable idx="11"/></product><product><variable idx="9" coef="64"/><variable idx="12"/></product><product><variable idx="9" coef="24"/><variable idx="13"/></product><product><variable idx="10" coef="128"/><variable idx="11"/></product><product><variable idx="10" coef="104"/><variable idx="12"/></product><product><variable idx="10" coef="64"/><variable idx="13"/></product><product><variable idx="10" coef="24"/><variable idx="14"/></product><product><variable idx="11" coef="128"/><variable idx="12"/></product><product><variable idx="11" coef="104"/><variable idx="13"/></product><product><variable idx="11" coef="64"/><variable idx="14"/></product><product><variable idx="11" coef="24"/><variable idx="15"/></product><product><variable idx="12" coef="128"/><variable idx="13"/></product><product><variable idx="12" coef="104"/><variable idx="14"/></product><product><variable idx="12" coef="64"/><variable idx="15"/></product><product><variable idx="12" coef="24"/><variable idx="16"/></product><product><variable idx="13" coef="128"/><variable idx="14"/></product><product><variable idx="13" coef="104"/><variable idx="15"/></product><product><variable idx="13" coef="64"/><variable idx="16"/></product><product><variable idx="13" coef="24"/><variable idx="17"/></product><product><variable idx="14" coef="128"/><variable idx="15"/></product><product><variable idx="14" coef="104"/><variable idx="16"/></product><product><variable idx="14" coef="64"/><variable idx="17"/></product><product><variable idx="14" coef="24"/><variable idx="18"/></product><product><variable idx="15" coef="128"/><variable idx="16"/></product><product><variable idx="15" coef="104"/><variable idx="17"/></product><product><variable idx="15" coef="64"/><variable idx="18"/></product><product><variable idx="15" coef="24"/><variable idx="19"/></product><product><variable idx="16" coef="96"/><variable idx="17"/></product><product><variable idx="16" coef="80"/><variable idx="18"/></product><product><variable idx="16" coef="32"/><variable idx="19"/></product><product><variable idx="17" coef="64"/><variable idx="18"/></product><product><variable idx="17" coef="24"/><variable idx="19"/></product><product><variable idx="18" coef="32"/><variable idx="19"/></product><variable idx="0" coef="-24"/><variable idx="1" coef="-52"/><variable idx="2" coef="-76"/><variable idx="3" coef="-104"/><variable idx="4" coef="-128"/><variable idx="5" coef="-128"/><variable idx="6" coef="-128"/><variable idx="7" coef="-128"/><variable idx="8" coef="-128"/><variable idx="9" coef="-128"/><variable idx="10" coef="-128"/><variable idx="11" coef="-128"/><variable idx="12" coef="-128"/><variable idx="13" coef="-128"/><variable idx="14" coef="-128"/><variable idx="15" coef="-128"/><variable idx="16" coef="-104"/><variable idx="17" coef="-76"/><variable idx="18" coef="-52"/><variable idx="19" coef="-24"/></sum></nl></nonlinearExpressions></instanceData></osil>